
  32    4
  10   10   10   10

   0   0   0   0   0   3 2 22 31 
   6   0   1   1   1   1 3 
   8   0   4   4   2   2 23 4 
   3   0   4   5   4   1 5 
   4   0   2   4   6   3 30 11 6 
   8   1   0   4   4   1 7 
   6   5   0   6   4   3 29 12 8 
  10   0   8   5   8   2 17 9 
   5   3   0   3   2   3 24 16 10 
   1   3   0   2   5   2 28 13 
   1   3   4   5   0   2 16 14 
   1   2   9   1   0   2 24 17 
   7   7   0   5   4   1 14 
   1   4   4   0   6   1 15 
   9   0   3   3   3   1 18 
   8   0   8   3   7   1 18 
   6   6   2   4   0   1 18 
   8   5   4   0   2   1 19 
   1   1   0   6   2   1 20 
  10   7   0   6   4   1 21 
   5   6   7   0   1   2 27 25 
   3   0   1   8   5   2 27 25 
   1   0   4   3   4   2 27 26 
   9   3   4   6   0   1 25 
   2   4   4   0   5   1 26 
   4   5   4   0   2   1 32
   2   3   3   0   5   1 32
   7   5   3   5   0   1 32
   4   4   4   1   0   1 32
   8   3   0   1   6   1 32
   4   0   1   5   4   1 32
   0   0   0   0   0   0 
